c CNF file generated from BLIF2CNF script.
c Original BLIF file was blif/b4.blif
p cnf 204 1461
-1 0
-2 -11 0
-4 -11 0
-5 -11 0
9 -11 0
11 2 4 5 -9  0
-11 10 0
-2 -12 0
3 -12 0
6 -12 0
7 -12 0
8 -12 0
-9 -12 0
12 2 -3 -6 -7 -8 9  0
-12 10 0
-10 11 12  0
-2 -18 0
-13 -18 0
16 -18 0
18 2 13 -16  0
-18 17 0
-2 -19 0
3 -19 0
14 -19 0
7 -19 0
15 -19 0
-16 -19 0
19 2 -3 -14 -7 -15 16  0
-19 17 0
-17 18 19  0
-2 -22 0
20 -22 0
-7 -22 0
15 -22 0
-8 -22 0
22 2 -20 7 -15 8  0
-22 21 0
-2 -23 0
20 -23 0
-7 -23 0
-15 -23 0
-8 -23 0
23 2 -20 7 15 8  0
-23 21 0
-21 22 23  0
2 -26 0
24 -26 0
26 -2 -24  0
-26 25 0
2 -27 0
-24 -27 0
27 -2 24  0
-27 25 0
-2 -28 0
20 -28 0
-7 -28 0
15 -28 0
-8 -28 0
28 2 -20 7 -15 8  0
-28 25 0
-25 26 27 28  0
-2 -37 0
29 -37 0
30 -37 0
-31 -37 0
32 -37 0
-7 -37 0
8 -37 0
37 2 -29 -30 31 -32 7 -8  0
-37 36 0
-2 -38 0
-29 -38 0
-30 -38 0
31 -38 0
-32 -38 0
-7 -38 0
8 -38 0
38 2 29 30 -31 32 7 -8  0
-38 36 0
-2 -39 0
-29 -39 0
30 -39 0
-31 -39 0
-32 -39 0
-7 -39 0
8 -39 0
39 2 29 -30 31 32 7 -8  0
-39 36 0
-2 -40 0
-29 -40 0
30 -40 0
31 -40 0
32 -40 0
35 -40 0
-7 -40 0
15 -40 0
8 -40 0
40 2 29 -30 -31 -32 -35 7 -15 -8  0
-40 36 0
-2 -41 0
29 -41 0
30 -41 0
31 -41 0
32 -41 0
33 -41 0
34 -41 0
-7 -41 0
15 -41 0
8 -41 0
41 2 -29 -30 -31 -32 -33 -34 7 -15 -8  0
-41 36 0
-2 -42 0
29 -42 0
30 -42 0
31 -42 0
-32 -42 0
33 -42 0
35 -42 0
-7 -42 0
15 -42 0
8 -42 0
42 2 -29 -30 -31 32 -33 -35 7 -15 -8  0
-42 36 0
-2 -43 0
29 -43 0
-30 -43 0
32 -43 0
33 -43 0
34 -43 0
35 -43 0
-7 -43 0
15 -43 0
8 -43 0
43 2 -29 30 -32 -33 -34 -35 7 -15 -8  0
-43 36 0
-2 -44 0
29 -44 0
-30 -44 0
-32 -44 0
33 -44 0
34 -44 0
35 -44 0
-7 -44 0
15 -44 0
8 -44 0
44 2 -29 30 32 -33 -34 -35 7 -15 -8  0
-44 36 0
-2 -45 0
29 -45 0
-31 -45 0
-32 -45 0
33 -45 0
34 -45 0
35 -45 0
-7 -45 0
15 -45 0
8 -45 0
45 2 -29 31 32 -33 -34 -35 7 -15 -8  0
-45 36 0
-36 37 38 39 40 41 42 43 44 45  0
-2 -52 0
3 -52 0
-47 -52 0
4 -52 0
-5 -52 0
48 -52 0
-49 -52 0
50 -52 0
7 -52 0
8 -52 0
52 2 -3 47 -4 5 -48 49 -50 -7 -8  0
-52 51 0
-2 -53 0
3 -53 0
-46 -53 0
-4 -53 0
-5 -53 0
48 -53 0
-49 -53 0
50 -53 0
7 -53 0
8 -53 0
53 2 -3 46 4 5 -48 49 -50 -7 -8  0
-53 51 0
-2 -54 0
3 -54 0
-46 -54 0
24 -54 0
4 -54 0
-5 -54 0
-48 -54 0
-49 -54 0
50 -54 0
7 -54 0
8 -54 0
54 2 -3 46 -24 -4 5 48 49 -50 -7 -8  0
-54 51 0
-2 -55 0
-29 -55 0
30 -55 0
-31 -55 0
-32 -55 0
-47 -55 0
4 -55 0
-5 -55 0
48 -55 0
-49 -55 0
-7 -55 0
8 -55 0
55 2 29 -30 31 32 47 -4 5 -48 49 7 -8  0
-55 51 0
-51 52 53 54 55  0
-2 -58 0
3 -58 0
-4 -58 0
5 -58 0
-48 -58 0
49 -58 0
50 -58 0
7 -58 0
8 -58 0
58 2 -3 4 -5 48 -49 -50 -7 -8  0
-58 57 0
-2 -59 0
3 -59 0
-46 -59 0
-4 -59 0
-5 -59 0
48 -59 0
-49 -59 0
50 -59 0
7 -59 0
8 -59 0
59 2 -3 46 4 5 -48 49 -50 -7 -8  0
-59 57 0
-2 -60 0
-29 -60 0
30 -60 0
-31 -60 0
-32 -60 0
-4 -60 0
5 -60 0
-48 -60 0
49 -60 0
-7 -60 0
8 -60 0
60 2 29 -30 31 32 4 -5 48 -49 7 -8  0
-60 57 0
-2 -61 0
-46 -61 0
-29 -61 0
30 -61 0
-31 -61 0
-32 -61 0
-4 -61 0
-5 -61 0
48 -61 0
-49 -61 0
-7 -61 0
8 -61 0
61 2 46 29 -30 31 32 4 5 -48 49 7 -8  0
-61 57 0
-2 -62 0
3 -62 0
46 -62 0
-29 -62 0
-30 -62 0
31 -62 0
32 -62 0
-4 -62 0
-5 -62 0
48 -62 0
50 -62 0
-7 -62 0
8 -62 0
62 2 -3 -46 29 30 -31 -32 4 5 -48 -50 7 -8  0
-62 57 0
-2 -63 0
3 -63 0
-29 -63 0
-30 -63 0
31 -63 0
32 -63 0
-4 -63 0
-5 -63 0
-48 -63 0
-49 -63 0
50 -63 0
-7 -63 0
8 -63 0
63 2 -3 29 30 -31 -32 4 5 48 49 -50 7 -8  0
-63 57 0
-2 -64 0
3 -64 0
-46 -64 0
-56 -64 0
-29 -64 0
-30 -64 0
31 -64 0
32 -64 0
-4 -64 0
-5 -64 0
48 -64 0
49 -64 0
50 -64 0
-7 -64 0
8 -64 0
64 2 -3 46 56 29 30 -31 -32 4 5 -48 -49 -50 7 -8  0
-64 57 0
-57 58 59 60 61 62 63 64  0
2 -66 0
24 -66 0
66 -2 -24  0
-66 65 0
2 -67 0
-24 -67 0
67 -2 24  0
-67 65 0
3 -68 0
4 -68 0
5 -68 0
-48 -68 0
-49 -68 0
6 -68 0
7 -68 0
8 -68 0
68 -3 -4 -5 48 49 -6 -7 -8  0
-68 65 0
-2 -69 0
3 -69 0
-4 -69 0
5 -69 0
-48 -69 0
49 -69 0
6 -69 0
7 -69 0
8 -69 0
69 2 -3 4 -5 48 -49 -6 -7 -8  0
-69 65 0
3 -70 0
-29 -70 0
-30 -70 0
31 -70 0
32 -70 0
4 -70 0
5 -70 0
-48 -70 0
-49 -70 0
6 -70 0
8 -70 0
70 -3 29 30 -31 -32 -4 -5 48 49 -6 -8  0
-70 65 0
-2 -71 0
-29 -71 0
30 -71 0
-31 -71 0
-32 -71 0
-4 -71 0
5 -71 0
-48 -71 0
49 -71 0
-7 -71 0
8 -71 0
71 2 29 -30 31 32 4 -5 48 -49 7 -8  0
-71 65 0
-65 66 67 68 69 70 71  0
2 -73 0
24 -73 0
73 -2 -24  0
-73 72 0
2 -74 0
-24 -74 0
74 -2 24  0
-74 72 0
3 -75 0
4 -75 0
-5 -75 0
-49 -75 0
6 -75 0
7 -75 0
8 -75 0
75 -3 -4 5 49 -6 -7 -8  0
-75 72 0
3 -76 0
4 -76 0
5 -76 0
-48 -76 0
-49 -76 0
6 -76 0
7 -76 0
8 -76 0
76 -3 -4 -5 48 49 -6 -7 -8  0
-76 72 0
-2 -77 0
-29 -77 0
30 -77 0
-31 -77 0
-32 -77 0
-47 -77 0
4 -77 0
-5 -77 0
48 -77 0
-49 -77 0
-7 -77 0
8 -77 0
77 2 29 -30 31 32 47 -4 5 -48 49 7 -8  0
-77 72 0
-46 -78 0
24 -78 0
-29 -78 0
30 -78 0
-31 -78 0
-32 -78 0
4 -78 0
-5 -78 0
-48 -78 0
-49 -78 0
-7 -78 0
8 -78 0
78 46 -24 29 -30 31 32 -4 5 48 49 7 -8  0
-78 72 0
-2 -79 0
3 -79 0
-46 -79 0
56 -79 0
-29 -79 0
-30 -79 0
31 -79 0
32 -79 0
4 -79 0
5 -79 0
-48 -79 0
-49 -79 0
6 -79 0
-7 -79 0
8 -79 0
79 2 -3 46 -56 29 30 -31 -32 -4 -5 48 49 -6 7 -8  0
-79 72 0
-72 73 74 75 76 77 78 79  0
2 -81 0
24 -81 0
81 -2 -24  0
-81 80 0
-2 -82 0
3 -82 0
-47 -82 0
4 -82 0
-5 -82 0
48 -82 0
-49 -82 0
6 -82 0
7 -82 0
8 -82 0
82 2 -3 47 -4 5 -48 49 -6 -7 -8  0
-82 80 0
-2 -83 0
3 -83 0
-46 -83 0
-4 -83 0
-5 -83 0
48 -83 0
-49 -83 0
6 -83 0
7 -83 0
8 -83 0
83 2 -3 46 4 5 -48 49 -6 -7 -8  0
-83 80 0
3 -84 0
-46 -84 0
24 -84 0
4 -84 0
-5 -84 0
-48 -84 0
-49 -84 0
6 -84 0
7 -84 0
8 -84 0
84 -3 46 -24 -4 5 48 49 -6 -7 -8  0
-84 80 0
-2 -85 0
-29 -85 0
30 -85 0
-31 -85 0
-32 -85 0
-47 -85 0
4 -85 0
-5 -85 0
48 -85 0
-49 -85 0
-7 -85 0
8 -85 0
85 2 29 -30 31 32 47 -4 5 -48 49 7 -8  0
-85 80 0
-80 81 82 83 84 85  0
2 -87 0
24 -87 0
87 -2 -24  0
-87 86 0
-2 -88 0
3 -88 0
-4 -88 0
5 -88 0
-48 -88 0
49 -88 0
6 -88 0
7 -88 0
8 -88 0
88 2 -3 4 -5 48 -49 -6 -7 -8  0
-88 86 0
3 -89 0
-46 -89 0
24 -89 0
4 -89 0
-5 -89 0
-48 -89 0
-49 -89 0
6 -89 0
7 -89 0
8 -89 0
89 -3 46 -24 -4 5 48 49 -6 -7 -8  0
-89 86 0
-2 -90 0
-29 -90 0
30 -90 0
-31 -90 0
-32 -90 0
-4 -90 0
5 -90 0
-48 -90 0
49 -90 0
-7 -90 0
8 -90 0
90 2 29 -30 31 32 4 -5 48 -49 7 -8  0
-90 86 0
-46 -91 0
24 -91 0
-29 -91 0
30 -91 0
-31 -91 0
-32 -91 0
4 -91 0
-5 -91 0
-48 -91 0
-49 -91 0
-7 -91 0
8 -91 0
91 46 -24 29 -30 31 32 -4 5 48 49 7 -8  0
-91 86 0
-2 -92 0
3 -92 0
46 -92 0
-29 -92 0
-30 -92 0
31 -92 0
32 -92 0
4 -92 0
-48 -92 0
-49 -92 0
6 -92 0
-7 -92 0
8 -92 0
92 2 -3 -46 29 30 -31 -32 -4 48 49 -6 7 -8  0
-92 86 0
-2 -93 0
3 -93 0
46 -93 0
-29 -93 0
-30 -93 0
31 -93 0
32 -93 0
-5 -93 0
-48 -93 0
-49 -93 0
6 -93 0
-7 -93 0
8 -93 0
93 2 -3 -46 29 30 -31 -32 5 48 49 -6 7 -8  0
-93 86 0
3 -94 0
24 -94 0
-29 -94 0
-30 -94 0
31 -94 0
32 -94 0
-4 -94 0
-5 -94 0
-48 -94 0
-49 -94 0
6 -94 0
-7 -94 0
8 -94 0
94 -3 -24 29 30 -31 -32 4 5 48 49 -6 7 -8  0
-94 86 0
-2 -95 0
3 -95 0
-46 -95 0
56 -95 0
-29 -95 0
-30 -95 0
31 -95 0
32 -95 0
4 -95 0
5 -95 0
-48 -95 0
-49 -95 0
6 -95 0
-7 -95 0
8 -95 0
95 2 -3 46 -56 29 30 -31 -32 -4 -5 48 49 -6 7 -8  0
-95 86 0
-86 87 88 89 90 91 92 93 94 95  0
2 -97 0
-24 -97 0
97 -2 24  0
-97 96 0
-2 -98 0
3 -98 0
-4 -98 0
-5 -98 0
48 -98 0
49 -98 0
50 -98 0
7 -98 0
8 -98 0
98 2 -3 4 5 -48 -49 -50 -7 -8  0
-98 96 0
-2 -99 0
3 -99 0
-4 -99 0
5 -99 0
-48 -99 0
49 -99 0
50 -99 0
7 -99 0
8 -99 0
99 2 -3 4 -5 48 -49 -50 -7 -8  0
-99 96 0
-2 -100 0
-29 -100 0
30 -100 0
-31 -100 0
-32 -100 0
-4 -100 0
5 -100 0
-48 -100 0
49 -100 0
-7 -100 0
8 -100 0
100 2 29 -30 31 32 4 -5 48 -49 7 -8  0
-100 96 0
-2 -101 0
3 -101 0
-29 -101 0
-30 -101 0
31 -101 0
32 -101 0
-4 -101 0
-5 -101 0
48 -101 0
49 -101 0
50 -101 0
8 -101 0
101 2 -3 29 30 -31 -32 4 5 -48 -49 -50 -8  0
-101 96 0
-96 97 98 99 100 101  0
2 -103 0
-24 -103 0
103 -2 24  0
-103 102 0
-2 -104 0
3 -104 0
-5 -104 0
48 -104 0
-49 -104 0
50 -104 0
7 -104 0
8 -104 0
104 2 -3 5 -48 49 -50 -7 -8  0
-104 102 0
-2 -105 0
3 -105 0
-4 -105 0
-5 -105 0
48 -105 0
49 -105 0
50 -105 0
7 -105 0
8 -105 0
105 2 -3 4 5 -48 -49 -50 -7 -8  0
-105 102 0
-2 -106 0
-29 -106 0
30 -106 0
-31 -106 0
-32 -106 0
-47 -106 0
4 -106 0
-5 -106 0
48 -106 0
-49 -106 0
-7 -106 0
8 -106 0
106 2 29 -30 31 32 47 -4 5 -48 49 7 -8  0
-106 102 0
-2 -107 0
-46 -107 0
-29 -107 0
30 -107 0
-31 -107 0
-32 -107 0
-4 -107 0
-5 -107 0
48 -107 0
-49 -107 0
-7 -107 0
8 -107 0
107 2 46 29 -30 31 32 4 5 -48 49 7 -8  0
-107 102 0
-2 -108 0
3 -108 0
-46 -108 0
-56 -108 0
-29 -108 0
-30 -108 0
31 -108 0
32 -108 0
-4 -108 0
-5 -108 0
48 -108 0
49 -108 0
50 -108 0
-7 -108 0
8 -108 0
108 2 -3 46 56 29 30 -31 -32 4 5 -48 -49 -50 7 -8  0
-108 102 0
-102 103 104 105 106 107 108  0
2 -111 0
24 -111 0
111 -2 -24  0
-111 110 0
2 -112 0
-24 -112 0
112 -2 24  0
-112 110 0
3 -113 0
109 -113 0
7 -113 0
15 -113 0
113 -3 -109 -7 -15  0
-113 110 0
-2 -114 0
3 -114 0
14 -114 0
7 -114 0
15 -114 0
114 2 -3 -14 -7 -15  0
-114 110 0
-110 111 112 113 114  0
-2 -117 0
3 -117 0
115 -117 0
-6 -117 0
14 -117 0
7 -117 0
15 -117 0
117 2 -3 -115 6 -14 -7 -15  0
-117 116 0
-116 117  0
-2 -119 0
3 -119 0
14 -119 0
7 -119 0
15 -119 0
119 2 -3 -14 -7 -15  0
-119 118 0
-118 119  0
-2 -122 0
120 -122 0
122 2 -120  0
-122 121 0
-2 -123 0
6 -123 0
7 -123 0
8 -123 0
123 2 -6 -7 -8  0
-123 121 0
-121 122 123  0
2 -127 0
24 -127 0
127 -2 -24  0
-127 126 0
2 -128 0
-24 -128 0
128 -2 24  0
-128 126 0
-20 -129 0
124 -129 0
129 20 -124  0
-129 126 0
124 -130 0
125 -130 0
130 -124 -125  0
-130 126 0
-2 -131 0
-29 -131 0
30 -131 0
-31 -131 0
-32 -131 0
-7 -131 0
8 -131 0
131 2 29 -30 31 32 7 -8  0
-131 126 0
-126 127 128 129 130 131  0
2 -133 0
24 -133 0
133 -2 -24  0
-133 132 0
2 -134 0
-24 -134 0
134 -2 24  0
-134 132 0
-20 -135 0
125 -135 0
135 20 -125  0
-135 132 0
20 -136 0
124 -136 0
-125 -136 0
136 -20 -124 125  0
-136 132 0
-2 -137 0
-29 -137 0
30 -137 0
-31 -137 0
-32 -137 0
-7 -137 0
8 -137 0
137 2 29 -30 31 32 7 -8  0
-137 132 0
-132 133 134 135 136 137  0
-2 -139 0
29 -139 0
30 -139 0
-31 -139 0
32 -139 0
-7 -139 0
8 -139 0
139 2 -29 -30 31 -32 7 -8  0
-139 138 0
-2 -140 0
-29 -140 0
-30 -140 0
31 -140 0
-32 -140 0
-7 -140 0
8 -140 0
140 2 29 30 -31 32 7 -8  0
-140 138 0
-2 -141 0
-29 -141 0
30 -141 0
31 -141 0
32 -141 0
35 -141 0
-7 -141 0
15 -141 0
8 -141 0
141 2 29 -30 -31 -32 -35 7 -15 -8  0
-141 138 0
-2 -142 0
29 -142 0
30 -142 0
31 -142 0
32 -142 0
33 -142 0
34 -142 0
-7 -142 0
15 -142 0
8 -142 0
142 2 -29 -30 -31 -32 -33 -34 7 -15 -8  0
-142 138 0
-2 -143 0
29 -143 0
30 -143 0
31 -143 0
-32 -143 0
33 -143 0
35 -143 0
-7 -143 0
15 -143 0
8 -143 0
143 2 -29 -30 -31 32 -33 -35 7 -15 -8  0
-143 138 0
-2 -144 0
29 -144 0
-30 -144 0
32 -144 0
33 -144 0
34 -144 0
35 -144 0
-7 -144 0
15 -144 0
8 -144 0
144 2 -29 30 -32 -33 -34 -35 7 -15 -8  0
-144 138 0
-2 -145 0
29 -145 0
-30 -145 0
-32 -145 0
33 -145 0
34 -145 0
35 -145 0
-7 -145 0
15 -145 0
8 -145 0
145 2 -29 30 32 -33 -34 -35 7 -15 -8  0
-145 138 0
-2 -146 0
29 -146 0
-31 -146 0
-32 -146 0
33 -146 0
34 -146 0
35 -146 0
-7 -146 0
15 -146 0
8 -146 0
146 2 -29 31 32 -33 -34 -35 7 -15 -8  0
-146 138 0
-138 139 140 141 142 143 144 145 146  0
2 -149 0
24 -149 0
149 -2 -24  0
-149 148 0
2 -150 0
-24 -150 0
150 -2 24  0
-150 148 0
-20 -151 0
-7 -151 0
15 -151 0
-8 -151 0
151 20 7 -15 8  0
-151 148 0
147 -152 0
-7 -152 0
-15 -152 0
-8 -152 0
152 -147 7 15 8  0
-152 148 0
-2 -153 0
20 -153 0
-7 -153 0
-15 -153 0
-8 -153 0
153 2 -20 7 15 8  0
-153 148 0
-2 -154 0
29 -154 0
30 -154 0
-31 -154 0
32 -154 0
-7 -154 0
8 -154 0
154 2 -29 -30 31 -32 7 -8  0
-154 148 0
-2 -155 0
-29 -155 0
30 -155 0
31 -155 0
32 -155 0
35 -155 0
-7 -155 0
15 -155 0
8 -155 0
155 2 29 -30 -31 -32 -35 7 -15 -8  0
-155 148 0
-2 -156 0
29 -156 0
30 -156 0
31 -156 0
-32 -156 0
33 -156 0
35 -156 0
-7 -156 0
15 -156 0
8 -156 0
156 2 -29 -30 -31 32 -33 -35 7 -15 -8  0
-156 148 0
-2 -157 0
29 -157 0
-30 -157 0
-32 -157 0
33 -157 0
34 -157 0
35 -157 0
-7 -157 0
15 -157 0
8 -157 0
157 2 -29 30 32 -33 -34 -35 7 -15 -8  0
-157 148 0
-2 -158 0
29 -158 0
-30 -158 0
31 -158 0
32 -158 0
33 -158 0
34 -158 0
35 -158 0
-7 -158 0
15 -158 0
8 -158 0
158 2 -29 30 -31 -32 -33 -34 -35 7 -15 -8  0
-158 148 0
-148 149 150 151 152 153 154 155 156 157 158  0
-2 -160 0
20 -160 0
-7 -160 0
15 -160 0
-8 -160 0
160 2 -20 7 -15 8  0
-160 159 0
-2 -161 0
20 -161 0
-7 -161 0
-15 -161 0
-8 -161 0
161 2 -20 7 15 8  0
-161 159 0
-2 -162 0
-29 -162 0
-30 -162 0
31 -162 0
-32 -162 0
-7 -162 0
8 -162 0
162 2 29 30 -31 32 7 -8  0
-162 159 0
-2 -163 0
29 -163 0
30 -163 0
31 -163 0
32 -163 0
33 -163 0
34 -163 0
-7 -163 0
15 -163 0
8 -163 0
163 2 -29 -30 -31 -32 -33 -34 7 -15 -8  0
-163 159 0
-2 -164 0
29 -164 0
-30 -164 0
32 -164 0
33 -164 0
34 -164 0
35 -164 0
-7 -164 0
15 -164 0
8 -164 0
164 2 -29 30 -32 -33 -34 -35 7 -15 -8  0
-164 159 0
-2 -165 0
29 -165 0
-31 -165 0
-32 -165 0
33 -165 0
34 -165 0
35 -165 0
-7 -165 0
15 -165 0
8 -165 0
165 2 -29 31 32 -33 -34 -35 7 -15 -8  0
-165 159 0
-159 160 161 162 163 164 165  0
-2 -166 0
120 -166 0
166 2 -120  0
-166 1 0
2 -167 0
24 -167 0
167 -2 -24  0
-167 1 0
2 -168 0
-24 -168 0
168 -2 24  0
-168 1 0
-20 -169 0
124 -169 0
169 20 -124  0
-169 1 0
-20 -170 0
125 -170 0
170 20 -125  0
-170 1 0
124 -171 0
125 -171 0
171 -124 -125  0
-171 1 0
20 -172 0
124 -172 0
-125 -172 0
172 -20 -124 125  0
-172 1 0
-2 -173 0
-13 -173 0
16 -173 0
173 2 13 -16  0
-173 1 0
3 -174 0
109 -174 0
7 -174 0
15 -174 0
174 -3 -109 -7 -15  0
-174 1 0
-2 -175 0
6 -175 0
7 -175 0
8 -175 0
175 2 -6 -7 -8  0
-175 1 0
-20 -176 0
-7 -176 0
15 -176 0
-8 -176 0
176 20 7 -15 8  0
-176 1 0
147 -177 0
-7 -177 0
-15 -177 0
-8 -177 0
177 -147 7 15 8  0
-177 1 0
-2 -178 0
-4 -178 0
-5 -178 0
9 -178 0
178 2 4 5 -9  0
-178 1 0
-2 -179 0
3 -179 0
14 -179 0
7 -179 0
15 -179 0
179 2 -3 -14 -7 -15  0
-179 1 0
-2 -180 0
20 -180 0
-7 -180 0
15 -180 0
-8 -180 0
180 2 -20 7 -15 8  0
-180 1 0
-2 -181 0
20 -181 0
-7 -181 0
-15 -181 0
-8 -181 0
181 2 -20 7 15 8  0
-181 1 0
3 -182 0
4 -182 0
-5 -182 0
-49 -182 0
6 -182 0
7 -182 0
8 -182 0
182 -3 -4 5 49 -6 -7 -8  0
-182 1 0
-2 -183 0
29 -183 0
30 -183 0
-31 -183 0
32 -183 0
-7 -183 0
8 -183 0
183 2 -29 -30 31 -32 7 -8  0
-183 1 0
-2 -184 0
-29 -184 0
-30 -184 0
31 -184 0
-32 -184 0
-7 -184 0
8 -184 0
184 2 29 30 -31 32 7 -8  0
-184 1 0
-2 -185 0
-29 -185 0
30 -185 0
-31 -185 0
-32 -185 0
-7 -185 0
8 -185 0
185 2 29 -30 31 32 7 -8  0
-185 1 0
3 -186 0
4 -186 0
5 -186 0
-48 -186 0
-49 -186 0
6 -186 0
7 -186 0
8 -186 0
186 -3 -4 -5 48 49 -6 -7 -8  0
-186 1 0
-2 -187 0
3 -187 0
-5 -187 0
48 -187 0
-49 -187 0
50 -187 0
7 -187 0
8 -187 0
187 2 -3 5 -48 49 -50 -7 -8  0
-187 1 0
-2 -188 0
3 -188 0
-4 -188 0
-5 -188 0
48 -188 0
49 -188 0
50 -188 0
7 -188 0
8 -188 0
188 2 -3 4 5 -48 -49 -50 -7 -8  0
-188 1 0
-2 -189 0
3 -189 0
-4 -189 0
5 -189 0
-48 -189 0
49 -189 0
50 -189 0
7 -189 0
8 -189 0
189 2 -3 4 -5 48 -49 -50 -7 -8  0
-189 1 0
-2 -190 0
-29 -190 0
30 -190 0
31 -190 0
32 -190 0
35 -190 0
-7 -190 0
15 -190 0
8 -190 0
190 2 29 -30 -31 -32 -35 7 -15 -8  0
-190 1 0
-2 -191 0
29 -191 0
30 -191 0
31 -191 0
32 -191 0
33 -191 0
34 -191 0
-7 -191 0
15 -191 0
8 -191 0
191 2 -29 -30 -31 -32 -33 -34 7 -15 -8  0
-191 1 0
-2 -192 0
29 -192 0
30 -192 0
31 -192 0
-32 -192 0
33 -192 0
35 -192 0
-7 -192 0
15 -192 0
8 -192 0
192 2 -29 -30 -31 32 -33 -35 7 -15 -8  0
-192 1 0
-2 -193 0
29 -193 0
-30 -193 0
32 -193 0
33 -193 0
34 -193 0
35 -193 0
-7 -193 0
15 -193 0
8 -193 0
193 2 -29 30 -32 -33 -34 -35 7 -15 -8  0
-193 1 0
-2 -194 0
29 -194 0
-30 -194 0
-32 -194 0
33 -194 0
34 -194 0
35 -194 0
-7 -194 0
15 -194 0
8 -194 0
194 2 -29 30 32 -33 -34 -35 7 -15 -8  0
-194 1 0
-2 -195 0
29 -195 0
-31 -195 0
-32 -195 0
33 -195 0
34 -195 0
35 -195 0
-7 -195 0
15 -195 0
8 -195 0
195 2 -29 31 32 -33 -34 -35 7 -15 -8  0
-195 1 0
3 -196 0
-29 -196 0
-30 -196 0
31 -196 0
32 -196 0
4 -196 0
5 -196 0
-48 -196 0
-49 -196 0
6 -196 0
8 -196 0
196 -3 29 30 -31 -32 -4 -5 48 49 -6 -8  0
-196 1 0
-2 -197 0
3 -197 0
-46 -197 0
24 -197 0
4 -197 0
-5 -197 0
-48 -197 0
-49 -197 0
50 -197 0
7 -197 0
8 -197 0
197 2 -3 46 -24 -4 5 48 49 -50 -7 -8  0
-197 1 0
-2 -198 0
3 -198 0
-29 -198 0
-30 -198 0
31 -198 0
32 -198 0
-4 -198 0
-5 -198 0
48 -198 0
49 -198 0
50 -198 0
8 -198 0
198 2 -3 29 30 -31 -32 4 5 -48 -49 -50 -8  0
-198 1 0
-46 -199 0
24 -199 0
-29 -199 0
30 -199 0
-31 -199 0
-32 -199 0
4 -199 0
-5 -199 0
-48 -199 0
-49 -199 0
-7 -199 0
8 -199 0
199 46 -24 29 -30 31 32 -4 5 48 49 7 -8  0
-199 1 0
-2 -200 0
3 -200 0
46 -200 0
-29 -200 0
-30 -200 0
31 -200 0
32 -200 0
4 -200 0
-48 -200 0
-49 -200 0
6 -200 0
-7 -200 0
8 -200 0
200 2 -3 -46 29 30 -31 -32 -4 48 49 -6 7 -8  0
-200 1 0
-2 -201 0
3 -201 0
46 -201 0
-29 -201 0
-30 -201 0
31 -201 0
32 -201 0
-5 -201 0
-48 -201 0
-49 -201 0
6 -201 0
-7 -201 0
8 -201 0
201 2 -3 -46 29 30 -31 -32 5 48 49 -6 7 -8  0
-201 1 0
3 -202 0
24 -202 0
-29 -202 0
-30 -202 0
31 -202 0
32 -202 0
-4 -202 0
-5 -202 0
-48 -202 0
-49 -202 0
6 -202 0
-7 -202 0
8 -202 0
202 -3 -24 29 30 -31 -32 4 5 48 49 -6 7 -8  0
-202 1 0
-2 -203 0
3 -203 0
46 -203 0
-29 -203 0
-30 -203 0
31 -203 0
32 -203 0
-4 -203 0
-5 -203 0
48 -203 0
50 -203 0
-7 -203 0
8 -203 0
203 2 -3 -46 29 30 -31 -32 4 5 -48 -50 7 -8  0
-203 1 0
-2 -204 0
3 -204 0
-29 -204 0
-30 -204 0
31 -204 0
32 -204 0
-4 -204 0
-5 -204 0
-48 -204 0
-49 -204 0
50 -204 0
-7 -204 0
8 -204 0
204 2 -3 29 30 -31 -32 4 5 48 49 -50 7 -8  0
-204 1 0
-1 166 167 168 169 170 171 172 173 174 175 176 177 178 179 180 181 182 183 184 185 186 187 188 189 190 191 192 193 194 195 196 197 198 199 200 201 202 203 204  0
-10 0
-17 0
-21 0
-25 0
-36 0
-51 0
-57 0
-65 0
-72 0
-80 0
-86 0
-96 0
-102 0
-110 0
-116 0
-118 0
-121 0
-126 0
-132 0
-138 0
-148 0
-159 0
